************************************************************************
file with basedata            : j60_58.bas
initial value random generator: 1784678769
************************************************************************
projects                      :  1
jobs (incl. supersource/sink ):  62
horizon                       :  268
RESOURCES
  - renewable                 :  4   R
  - nonrenewable              :  0   N
  - doubly constrained        :  0   D
************************************************************************
PROJECT INFORMATION:
pronr.  #jobs rel.date duedate tardcost  MPM-Time
    1     60      0       55       15       55
************************************************************************
PRECEDENCE RELATIONS:
jobnr.    #modes  #successors   successors
   1        1          3           2   3   4
   2        1          3          14  44  54
   3        1          3           7   8  21
   4        1          3           5   6  12
   5        1          3          17  27  31
   6        1          3          11  16  48
   7        1          3          10  26  39
   8        1          3           9  13  20
   9        1          3          24  29  38
  10        1          3          15  33  42
  11        1          3          24  32  45
  12        1          3          19  36  38
  13        1          3          16  19  43
  14        1          3          22  30  48
  15        1          3          18  24  35
  16        1          3          30  35  56
  17        1          2          33  41
  18        1          3          28  30  43
  19        1          2          22  44
  20        1          3          22  27  52
  21        1          3          32  40  52
  22        1          3          23  25  31
  23        1          3          28  37  51
  24        1          3          25  28  46
  25        1          1          51
  26        1          2          32  34
  27        1          3          33  34  37
  28        1          2          53  55
  29        1          2          39  50
  30        1          2          45  61
  31        1          3          35  42  47
  32        1          2          37  54
  33        1          3          43  48  57
  34        1          3          40  47  50
  35        1          1          60
  36        1          2          39  44
  37        1          2          41  57
  38        1          1          49
  39        1          3          40  46  51
  40        1          3          41  42  45
  41        1          1          59
  42        1          2          53  58
  43        1          1          50
  44        1          3          47  49  53
  45        1          1          55
  46        1          2          49  57
  47        1          1          56
  48        1          1          59
  49        1          1          52
  50        1          1          54
  51        1          1          60
  52        1          2          55  56
  53        1          1          61
  54        1          1          58
  55        1          1          60
  56        1          1          58
  57        1          1          59
  58        1          1          61
  59        1          1          62
  60        1          1          62
  61        1          1          62
  62        1          0        
************************************************************************
REQUESTS/DURATIONS:
jobnr. mode duration  R 1  R 2  R 3  R 4
------------------------------------------------------------------------
  1      1     0       0    0    0    0
  2      1     3       7    7    8    7
  3      1    10       2    0    9    7
  4      1     6       6    0    0    3
  5      1     7       0    5    7    0
  6      1    10       1    2    0    5
  7      1     5       9    8   10    2
  8      1     2       3    2    0    0
  9      1     9       5    0    1    6
 10      1     1       2    5    4    9
 11      1     2       0    3    8    9
 12      1     7       0    7    3   10
 13      1    10       9    7    0    4
 14      1     3       0    4    1    8
 15      1     9       4    0    2    8
 16      1     7       8    6    0   10
 17      1    10       8    9    0    6
 18      1     2       3    3    2    6
 19      1     3       3    0    9    0
 20      1     2       5    6    0    3
 21      1     2       6    0    8   10
 22      1     2       3    7    9    1
 23      1     3       2    4    6    0
 24      1     3       8    5    7    3
 25      1     4       1    0    0    9
 26      1     5       2   10    6    9
 27      1     5       0    2    2    7
 28      1     6       0    7    0    6
 29      1     8       8    1    7    7
 30      1     8       1    3   10    7
 31      1     1       3    0    2    7
 32      1     2       3    3    6    4
 33      1     8       9    0    0    7
 34      1     9       0    4    3    0
 35      1     5       7    9    5    5
 36      1     2       3    4    7    6
 37      1     4       4    0    8    0
 38      1     4       0   10    2    8
 39      1     3       7    0    7    8
 40      1     5       6    1    3    0
 41      1     1      10    1   10    0
 42      1     5       1    0   10    5
 43      1     5       2    0    9    2
 44      1     5       1    3    7    3
 45      1     1       6    8    8    6
 46      1     3       3    9    0    0
 47      1     2       5    9    3    5
 48      1     2       7    5    8    2
 49      1     3       0    0    0    2
 50      1     2       4    0    4    0
 51      1     1       1    6    0    9
 52      1     7       3    5    4    7
 53      1     3       2    6    6    0
 54      1     1       0    7    0    3
 55      1     8       0   10    0    3
 56      1     2       0   10    7    0
 57      1     7       4    3   10    5
 58      1     2      10    8    0    0
 59      1     6      10    2   10    0
 60      1     2       5    1    0    2
 61      1     3      10    7    0    9
 62      1     0       0    0    0    0
************************************************************************
RESOURCEAVAILABILITIES:
  R 1  R 2  R 3  R 4
   25   25   30   30
************************************************************************
